data;

param duration := 4;

param acoes := 5;

param orcamento := 
1 709.648530466
2 705.708505611
3 702.322692652
4 722.253468153
;

param custo := 
1 18
2 15
3 11
4 29
5 13
;

param uc := 
1 78
2 94
3 129
4 48
5 109
;

param energia : 1 2 3 4 5:=
1 28.0 39.0 64.0 75.0 87.0 
2 13.0 66.0 36.0 48.0 92.0 
3 53.0 41.0 78.0 86.0 58.0 
4 96.0 76.0 47.0 16.0 88.0 
;

end;
